/*********************************************
 * OPL 12.6.3.0 Data
 * Author: 12399
 * Creation Date: 2021-5-18 at 下午4:51:07
 *********************************************/
/*ys = 3;
bl = 3;
b = [9,2,4];
c = [-1,-1,4];
a = [[1,1,2],[1,1,-1],[-1,1,1]];// 数组之间的间隔也使用逗号或空格*/

ys = 2;
bl = 4;
b = [4,-4];
c = [1,-3,2];
a = [[1,1,1,1],[1,-1,3,-2]];